* #variable= 692 #constraint= 847 
+1 x47 = 1 ;
+1 x48 = 0 ;
+1 x49 = 0 ;
+1 x50 = 0 ;
+1 x51 = 0 ;
+1 x52 = 0 ;
+1 x53 = 0 ;
+1 x54 = 0 ;
+1 x55 = 0 ;
+2 x66 +1 x56 -1 x38 -1 x47 = 0 ;
+2 x67 +1 x57 -1 x39 -1 x66 -1 x48 = 0 ;
+2 x68 +1 x58 -1 x40 -1 x67 -1 x49 = 0 ;
+2 x69 +1 x59 -1 x41 -1 x68 -1 x50 = 0 ;
+2 x70 +1 x60 -1 x42 -1 x69 -1 x51 = 0 ;
+2 x71 +1 x61 -1 x43 -1 x70 -1 x52 = 0 ;
+2 x72 +1 x62 -1 x44 -1 x71 -1 x53 = 0 ;
+2 x73 +1 x63 -1 x45 -1 x72 -1 x54 = 0 ;
+2 x74 +1 x64 -1 x46 -1 x73 -1 x55 = 0 ;
+1 x74 -1 x65 = 0 ;
+2 x75 +1 x674 -1 x656 -1 x1 = 0 ;
+2 x76 +1 x675 -1 x657 -1 x75 -1 x2 = 0 ;
+2 x77 +1 x676 -1 x658 -1 x76 -1 x3 = 0 ;
+2 x78 +1 x677 -1 x659 -1 x77 -1 x4 = 0 ;
+2 x79 +1 x678 -1 x660 -1 x78 -1 x5 = 0 ;
+2 x80 +1 x679 -1 x661 -1 x79 -1 x6 = 0 ;
+2 x81 +1 x680 -1 x662 -1 x80 -1 x7 = 0 ;
+2 x82 +1 x681 -1 x663 -1 x81 -1 x8 = 0 ;
+2 x83 +1 x682 -1 x664 -1 x82 -1 x9 = 0 ;
+2 x84 +1 x683 -1 x665 -1 x83 -1 x10 = 0 ;
+2 x85 +1 x684 -1 x666 -1 x84 -1 x11 = 0 ;
+2 x86 +1 x685 -1 x667 -1 x85 -1 x12 = 0 ;
+2 x87 +1 x686 -1 x668 -1 x86 -1 x13 = 0 ;
+2 x88 +1 x687 -1 x669 -1 x87 -1 x14 = 0 ;
+2 x89 +1 x688 -1 x670 -1 x88 -1 x15 = 0 ;
+2 x90 +1 x689 -1 x671 -1 x89 -1 x16 = 0 ;
+2 x91 +1 x690 -1 x672 -1 x90 -1 x17 = 0 ;
+2 x92 +1 x691 -1 x673 -1 x91 -1 x18 = 0 ;
+1 x92 -1 x692 = 0 ;
+1 x10 = 0 ;
+1 x11 = 0 ;
+1 x12 = 0 ;
+1 x13 = 0 ;
+1 x14 = 0 ;
+1 x15 = 0 ;
+1 x16 = 0 ;
+1 x17 = 0 ;
+1 x18 = 0 ;
+1 x37 = 0 ;
+1 x28 -1 x1 >= 0 ;
+1 x28 -1 x19 >= 0 ;
-1 x28 +1 x1 +1 x19 >= 0 ;
+1 x19 = 0 ;
+1 x29 -1 x2 >= 0 ;
+1 x29 -1 x20 >= 0 ;
-1 x29 +1 x2 +1 x20 >= 0 ;
+1 x20 = 1 ;
+1 x30 -1 x3 >= 0 ;
+1 x30 -1 x21 >= 0 ;
-1 x30 +1 x3 +1 x21 >= 0 ;
+1 x21 = 0 ;
+1 x31 -1 x4 >= 0 ;
+1 x31 -1 x22 >= 0 ;
-1 x31 +1 x4 +1 x22 >= 0 ;
+1 x22 = 1 ;
+1 x32 -1 x5 >= 0 ;
+1 x32 -1 x23 >= 0 ;
-1 x32 +1 x5 +1 x23 >= 0 ;
+1 x23 = 0 ;
+1 x33 -1 x6 >= 0 ;
+1 x33 -1 x24 >= 0 ;
-1 x33 +1 x6 +1 x24 >= 0 ;
+1 x24 = 1 ;
+1 x34 -1 x7 >= 0 ;
+1 x34 -1 x25 >= 0 ;
-1 x34 +1 x7 +1 x25 >= 0 ;
+1 x25 = 0 ;
+1 x35 -1 x8 >= 0 ;
+1 x35 -1 x26 >= 0 ;
-1 x35 +1 x8 +1 x26 >= 0 ;
+1 x26 = 1 ;
+1 x36 -1 x9 >= 0 ;
+1 x36 -1 x27 >= 0 ;
-1 x36 +1 x9 +1 x27 >= 0 ;
+1 x27 = 0 ;
-1 x93 +1 x28 >= 0 ;
-1 x93 +1 x56 >= 0 ;
+1 x93 -1 x28 -1 x56 >= -1 ;
+1 x293 -1 x93 = 0 ;
+1 x293 -1 x393 = 0 ;
-1 x413 +1 x19 >= 0 ;
-1 x413 +1 x38 >= 0 ;
+1 x413 -1 x19 -1 x38 >= -1 ;
+1 x575 -1 x413 = 0 ;
+1 x575 -1 x656 = 0 ;
+1 x674 -1 x393 +2 x675 -2 x394 +4 x676 -4 x395 +8 x677 -8 x396 +16 x678 -16 x397 +32 x679 -32 x398 +64 x680 -64 x399 +128 x681 -128 x400 +256 x682 -256 x401 +512 x683 -512 x402 +1024 x684 -1024 x403 +2048 x685 -2048 x404 +4096 x686 -4096 x405 +8192 x687 -8192 x406 +16384 x688 -16384 x407 +32768 x689 -32768 x408 +65536 x690 -65536 x409 +131072 x691 -131072 x410 +262144 x692 -262144 x411 >= 1 ;
-1 x103 +1 x29 >= 0 ;
-1 x103 +1 x56 >= 0 ;
+1 x103 -1 x29 -1 x56 >= -1 ;
-1 x94 +1 x28 >= 0 ;
-1 x94 +1 x57 >= 0 ;
+1 x94 -1 x28 -1 x57 >= -1 ;
+1 x303 -1 x103 = 0 ;
+2 x194 +1 x294 -1 x94 -1 x303 = 0 ;
+1 x294 -1 x394 = 0 ;
-1 x422 +1 x20 >= 0 ;
-1 x422 +1 x38 >= 0 ;
+1 x422 -1 x20 -1 x38 >= -1 ;
-1 x414 +1 x19 >= 0 ;
-1 x414 +1 x39 >= 0 ;
+1 x414 -1 x19 -1 x39 >= -1 ;
+1 x584 -1 x422 = 0 ;
+2 x495 +1 x576 -1 x414 -1 x584 = 0 ;
+1 x576 -1 x657 = 0 ;
-1 x113 +1 x30 >= 0 ;
-1 x113 +1 x56 >= 0 ;
+1 x113 -1 x30 -1 x56 >= -1 ;
-1 x104 +1 x29 >= 0 ;
-1 x104 +1 x57 >= 0 ;
+1 x104 -1 x29 -1 x57 >= -1 ;
-1 x95 +1 x28 >= 0 ;
-1 x95 +1 x58 >= 0 ;
+1 x95 -1 x28 -1 x58 >= -1 ;
+1 x313 -1 x113 = 0 ;
+2 x204 +1 x304 -1 x104 -1 x194 -1 x313 = 0 ;
+2 x195 +1 x295 -1 x95 -1 x304 = 0 ;
+1 x295 -1 x395 = 0 ;
-1 x431 +1 x21 >= 0 ;
-1 x431 +1 x38 >= 0 ;
+1 x431 -1 x21 -1 x38 >= -1 ;
-1 x423 +1 x20 >= 0 ;
-1 x423 +1 x39 >= 0 ;
+1 x423 -1 x20 -1 x39 >= -1 ;
-1 x415 +1 x19 >= 0 ;
-1 x415 +1 x40 >= 0 ;
+1 x415 -1 x19 -1 x40 >= -1 ;
+1 x593 -1 x431 = 0 ;
+2 x504 +1 x585 -1 x423 -1 x495 -1 x593 = 0 ;
+2 x496 +1 x577 -1 x415 -1 x585 = 0 ;
+1 x577 -1 x658 = 0 ;
-1 x123 +1 x31 >= 0 ;
-1 x123 +1 x56 >= 0 ;
+1 x123 -1 x31 -1 x56 >= -1 ;
-1 x114 +1 x30 >= 0 ;
-1 x114 +1 x57 >= 0 ;
+1 x114 -1 x30 -1 x57 >= -1 ;
-1 x105 +1 x29 >= 0 ;
-1 x105 +1 x58 >= 0 ;
+1 x105 -1 x29 -1 x58 >= -1 ;
-1 x96 +1 x28 >= 0 ;
-1 x96 +1 x59 >= 0 ;
+1 x96 -1 x28 -1 x59 >= -1 ;
+1 x323 -1 x123 = 0 ;
+2 x214 +1 x314 -1 x114 -1 x204 -1 x323 = 0 ;
+2 x205 +1 x305 -1 x105 -1 x195 -1 x314 = 0 ;
+2 x196 +1 x296 -1 x96 -1 x305 = 0 ;
+1 x296 -1 x396 = 0 ;
-1 x440 +1 x22 >= 0 ;
-1 x440 +1 x38 >= 0 ;
+1 x440 -1 x22 -1 x38 >= -1 ;
-1 x432 +1 x21 >= 0 ;
-1 x432 +1 x39 >= 0 ;
+1 x432 -1 x21 -1 x39 >= -1 ;
-1 x424 +1 x20 >= 0 ;
-1 x424 +1 x40 >= 0 ;
+1 x424 -1 x20 -1 x40 >= -1 ;
-1 x416 +1 x19 >= 0 ;
-1 x416 +1 x41 >= 0 ;
+1 x416 -1 x19 -1 x41 >= -1 ;
+1 x602 -1 x440 = 0 ;
+2 x513 +1 x594 -1 x432 -1 x504 -1 x602 = 0 ;
+2 x505 +1 x586 -1 x424 -1 x496 -1 x594 = 0 ;
+2 x497 +1 x578 -1 x416 -1 x586 = 0 ;
+1 x578 -1 x659 = 0 ;
-1 x133 +1 x32 >= 0 ;
-1 x133 +1 x56 >= 0 ;
+1 x133 -1 x32 -1 x56 >= -1 ;
-1 x124 +1 x31 >= 0 ;
-1 x124 +1 x57 >= 0 ;
+1 x124 -1 x31 -1 x57 >= -1 ;
-1 x115 +1 x30 >= 0 ;
-1 x115 +1 x58 >= 0 ;
+1 x115 -1 x30 -1 x58 >= -1 ;
-1 x106 +1 x29 >= 0 ;
-1 x106 +1 x59 >= 0 ;
+1 x106 -1 x29 -1 x59 >= -1 ;
-1 x97 +1 x28 >= 0 ;
-1 x97 +1 x60 >= 0 ;
+1 x97 -1 x28 -1 x60 >= -1 ;
+1 x333 -1 x133 = 0 ;
+2 x224 +1 x324 -1 x124 -1 x214 -1 x333 = 0 ;
+2 x215 +1 x315 -1 x115 -1 x205 -1 x324 = 0 ;
+2 x206 +1 x306 -1 x106 -1 x196 -1 x315 = 0 ;
+2 x197 +1 x297 -1 x97 -1 x306 = 0 ;
+1 x297 -1 x397 = 0 ;
-1 x449 +1 x23 >= 0 ;
-1 x449 +1 x38 >= 0 ;
+1 x449 -1 x23 -1 x38 >= -1 ;
-1 x441 +1 x22 >= 0 ;
-1 x441 +1 x39 >= 0 ;
+1 x441 -1 x22 -1 x39 >= -1 ;
-1 x433 +1 x21 >= 0 ;
-1 x433 +1 x40 >= 0 ;
+1 x433 -1 x21 -1 x40 >= -1 ;
-1 x425 +1 x20 >= 0 ;
-1 x425 +1 x41 >= 0 ;
+1 x425 -1 x20 -1 x41 >= -1 ;
-1 x417 +1 x19 >= 0 ;
-1 x417 +1 x42 >= 0 ;
+1 x417 -1 x19 -1 x42 >= -1 ;
+1 x611 -1 x449 = 0 ;
+2 x522 +1 x603 -1 x441 -1 x513 -1 x611 = 0 ;
+2 x514 +1 x595 -1 x433 -1 x505 -1 x603 = 0 ;
+2 x506 +1 x587 -1 x425 -1 x497 -1 x595 = 0 ;
+2 x498 +1 x579 -1 x417 -1 x587 = 0 ;
+1 x579 -1 x660 = 0 ;
-1 x143 +1 x33 >= 0 ;
-1 x143 +1 x56 >= 0 ;
+1 x143 -1 x33 -1 x56 >= -1 ;
-1 x134 +1 x32 >= 0 ;
-1 x134 +1 x57 >= 0 ;
+1 x134 -1 x32 -1 x57 >= -1 ;
-1 x125 +1 x31 >= 0 ;
-1 x125 +1 x58 >= 0 ;
+1 x125 -1 x31 -1 x58 >= -1 ;
-1 x116 +1 x30 >= 0 ;
-1 x116 +1 x59 >= 0 ;
+1 x116 -1 x30 -1 x59 >= -1 ;
-1 x107 +1 x29 >= 0 ;
-1 x107 +1 x60 >= 0 ;
+1 x107 -1 x29 -1 x60 >= -1 ;
-1 x98 +1 x28 >= 0 ;
-1 x98 +1 x61 >= 0 ;
+1 x98 -1 x28 -1 x61 >= -1 ;
+1 x343 -1 x143 = 0 ;
+2 x234 +1 x334 -1 x134 -1 x224 -1 x343 = 0 ;
+2 x225 +1 x325 -1 x125 -1 x215 -1 x334 = 0 ;
+2 x216 +1 x316 -1 x116 -1 x206 -1 x325 = 0 ;
+2 x207 +1 x307 -1 x107 -1 x197 -1 x316 = 0 ;
+2 x198 +1 x298 -1 x98 -1 x307 = 0 ;
+1 x298 -1 x398 = 0 ;
-1 x458 +1 x24 >= 0 ;
-1 x458 +1 x38 >= 0 ;
+1 x458 -1 x24 -1 x38 >= -1 ;
-1 x450 +1 x23 >= 0 ;
-1 x450 +1 x39 >= 0 ;
+1 x450 -1 x23 -1 x39 >= -1 ;
-1 x442 +1 x22 >= 0 ;
-1 x442 +1 x40 >= 0 ;
+1 x442 -1 x22 -1 x40 >= -1 ;
-1 x434 +1 x21 >= 0 ;
-1 x434 +1 x41 >= 0 ;
+1 x434 -1 x21 -1 x41 >= -1 ;
-1 x426 +1 x20 >= 0 ;
-1 x426 +1 x42 >= 0 ;
+1 x426 -1 x20 -1 x42 >= -1 ;
-1 x418 +1 x19 >= 0 ;
-1 x418 +1 x43 >= 0 ;
+1 x418 -1 x19 -1 x43 >= -1 ;
+1 x620 -1 x458 = 0 ;
+2 x531 +1 x612 -1 x450 -1 x522 -1 x620 = 0 ;
+2 x523 +1 x604 -1 x442 -1 x514 -1 x612 = 0 ;
+2 x515 +1 x596 -1 x434 -1 x506 -1 x604 = 0 ;
+2 x507 +1 x588 -1 x426 -1 x498 -1 x596 = 0 ;
+2 x499 +1 x580 -1 x418 -1 x588 = 0 ;
+1 x580 -1 x661 = 0 ;
-1 x153 +1 x34 >= 0 ;
-1 x153 +1 x56 >= 0 ;
+1 x153 -1 x34 -1 x56 >= -1 ;
-1 x144 +1 x33 >= 0 ;
-1 x144 +1 x57 >= 0 ;
+1 x144 -1 x33 -1 x57 >= -1 ;
-1 x135 +1 x32 >= 0 ;
-1 x135 +1 x58 >= 0 ;
+1 x135 -1 x32 -1 x58 >= -1 ;
-1 x126 +1 x31 >= 0 ;
-1 x126 +1 x59 >= 0 ;
+1 x126 -1 x31 -1 x59 >= -1 ;
-1 x117 +1 x30 >= 0 ;
-1 x117 +1 x60 >= 0 ;
+1 x117 -1 x30 -1 x60 >= -1 ;
-1 x108 +1 x29 >= 0 ;
-1 x108 +1 x61 >= 0 ;
+1 x108 -1 x29 -1 x61 >= -1 ;
-1 x99 +1 x28 >= 0 ;
-1 x99 +1 x62 >= 0 ;
+1 x99 -1 x28 -1 x62 >= -1 ;
+1 x353 -1 x153 = 0 ;
+2 x244 +1 x344 -1 x144 -1 x234 -1 x353 = 0 ;
+2 x235 +1 x335 -1 x135 -1 x225 -1 x344 = 0 ;
+2 x226 +1 x326 -1 x126 -1 x216 -1 x335 = 0 ;
+2 x217 +1 x317 -1 x117 -1 x207 -1 x326 = 0 ;
+2 x208 +1 x308 -1 x108 -1 x198 -1 x317 = 0 ;
+2 x199 +1 x299 -1 x99 -1 x308 = 0 ;
+1 x299 -1 x399 = 0 ;
-1 x467 +1 x25 >= 0 ;
-1 x467 +1 x38 >= 0 ;
+1 x467 -1 x25 -1 x38 >= -1 ;
-1 x459 +1 x24 >= 0 ;
-1 x459 +1 x39 >= 0 ;
+1 x459 -1 x24 -1 x39 >= -1 ;
-1 x451 +1 x23 >= 0 ;
-1 x451 +1 x40 >= 0 ;
+1 x451 -1 x23 -1 x40 >= -1 ;
-1 x443 +1 x22 >= 0 ;
-1 x443 +1 x41 >= 0 ;
+1 x443 -1 x22 -1 x41 >= -1 ;
-1 x435 +1 x21 >= 0 ;
-1 x435 +1 x42 >= 0 ;
+1 x435 -1 x21 -1 x42 >= -1 ;
-1 x427 +1 x20 >= 0 ;
-1 x427 +1 x43 >= 0 ;
+1 x427 -1 x20 -1 x43 >= -1 ;
-1 x419 +1 x19 >= 0 ;
-1 x419 +1 x44 >= 0 ;
+1 x419 -1 x19 -1 x44 >= -1 ;
+1 x629 -1 x467 = 0 ;
+2 x540 +1 x621 -1 x459 -1 x531 -1 x629 = 0 ;
+2 x532 +1 x613 -1 x451 -1 x523 -1 x621 = 0 ;
+2 x524 +1 x605 -1 x443 -1 x515 -1 x613 = 0 ;
+2 x516 +1 x597 -1 x435 -1 x507 -1 x605 = 0 ;
+2 x508 +1 x589 -1 x427 -1 x499 -1 x597 = 0 ;
+2 x500 +1 x581 -1 x419 -1 x589 = 0 ;
+1 x581 -1 x662 = 0 ;
-1 x163 +1 x35 >= 0 ;
-1 x163 +1 x56 >= 0 ;
+1 x163 -1 x35 -1 x56 >= -1 ;
-1 x154 +1 x34 >= 0 ;
-1 x154 +1 x57 >= 0 ;
+1 x154 -1 x34 -1 x57 >= -1 ;
-1 x145 +1 x33 >= 0 ;
-1 x145 +1 x58 >= 0 ;
+1 x145 -1 x33 -1 x58 >= -1 ;
-1 x136 +1 x32 >= 0 ;
-1 x136 +1 x59 >= 0 ;
+1 x136 -1 x32 -1 x59 >= -1 ;
-1 x127 +1 x31 >= 0 ;
-1 x127 +1 x60 >= 0 ;
+1 x127 -1 x31 -1 x60 >= -1 ;
-1 x118 +1 x30 >= 0 ;
-1 x118 +1 x61 >= 0 ;
+1 x118 -1 x30 -1 x61 >= -1 ;
-1 x109 +1 x29 >= 0 ;
-1 x109 +1 x62 >= 0 ;
+1 x109 -1 x29 -1 x62 >= -1 ;
-1 x100 +1 x28 >= 0 ;
-1 x100 +1 x63 >= 0 ;
+1 x100 -1 x28 -1 x63 >= -1 ;
+1 x363 -1 x163 = 0 ;
+2 x254 +1 x354 -1 x154 -1 x244 -1 x363 = 0 ;
+2 x245 +1 x345 -1 x145 -1 x235 -1 x354 = 0 ;
+2 x236 +1 x336 -1 x136 -1 x226 -1 x345 = 0 ;
+2 x227 +1 x327 -1 x127 -1 x217 -1 x336 = 0 ;
+2 x218 +1 x318 -1 x118 -1 x208 -1 x327 = 0 ;
+2 x209 +1 x309 -1 x109 -1 x199 -1 x318 = 0 ;
+2 x200 +1 x300 -1 x100 -1 x309 = 0 ;
+1 x300 -1 x400 = 0 ;
-1 x476 +1 x26 >= 0 ;
-1 x476 +1 x38 >= 0 ;
+1 x476 -1 x26 -1 x38 >= -1 ;
-1 x468 +1 x25 >= 0 ;
-1 x468 +1 x39 >= 0 ;
+1 x468 -1 x25 -1 x39 >= -1 ;
-1 x460 +1 x24 >= 0 ;
-1 x460 +1 x40 >= 0 ;
+1 x460 -1 x24 -1 x40 >= -1 ;
-1 x452 +1 x23 >= 0 ;
-1 x452 +1 x41 >= 0 ;
+1 x452 -1 x23 -1 x41 >= -1 ;
-1 x444 +1 x22 >= 0 ;
-1 x444 +1 x42 >= 0 ;
+1 x444 -1 x22 -1 x42 >= -1 ;
-1 x436 +1 x21 >= 0 ;
-1 x436 +1 x43 >= 0 ;
+1 x436 -1 x21 -1 x43 >= -1 ;
-1 x428 +1 x20 >= 0 ;
-1 x428 +1 x44 >= 0 ;
+1 x428 -1 x20 -1 x44 >= -1 ;
-1 x420 +1 x19 >= 0 ;
-1 x420 +1 x45 >= 0 ;
+1 x420 -1 x19 -1 x45 >= -1 ;
+1 x638 -1 x476 = 0 ;
+2 x549 +1 x630 -1 x468 -1 x540 -1 x638 = 0 ;
+2 x541 +1 x622 -1 x460 -1 x532 -1 x630 = 0 ;
+2 x533 +1 x614 -1 x452 -1 x524 -1 x622 = 0 ;
+2 x525 +1 x606 -1 x444 -1 x516 -1 x614 = 0 ;
+2 x517 +1 x598 -1 x436 -1 x508 -1 x606 = 0 ;
+2 x509 +1 x590 -1 x428 -1 x500 -1 x598 = 0 ;
+2 x501 +1 x582 -1 x420 -1 x590 = 0 ;
+1 x582 -1 x663 = 0 ;
-1 x173 +1 x36 >= 0 ;
-1 x173 +1 x56 >= 0 ;
+1 x173 -1 x36 -1 x56 >= -1 ;
-1 x164 +1 x35 >= 0 ;
-1 x164 +1 x57 >= 0 ;
+1 x164 -1 x35 -1 x57 >= -1 ;
-1 x155 +1 x34 >= 0 ;
-1 x155 +1 x58 >= 0 ;
+1 x155 -1 x34 -1 x58 >= -1 ;
-1 x146 +1 x33 >= 0 ;
-1 x146 +1 x59 >= 0 ;
+1 x146 -1 x33 -1 x59 >= -1 ;
-1 x137 +1 x32 >= 0 ;
-1 x137 +1 x60 >= 0 ;
+1 x137 -1 x32 -1 x60 >= -1 ;
-1 x128 +1 x31 >= 0 ;
-1 x128 +1 x61 >= 0 ;
+1 x128 -1 x31 -1 x61 >= -1 ;
-1 x119 +1 x30 >= 0 ;
-1 x119 +1 x62 >= 0 ;
+1 x119 -1 x30 -1 x62 >= -1 ;
-1 x110 +1 x29 >= 0 ;
-1 x110 +1 x63 >= 0 ;
+1 x110 -1 x29 -1 x63 >= -1 ;
-1 x101 +1 x28 >= 0 ;
-1 x101 +1 x64 >= 0 ;
+1 x101 -1 x28 -1 x64 >= -1 ;
+1 x373 -1 x173 = 0 ;
+2 x264 +1 x364 -1 x164 -1 x254 -1 x373 = 0 ;
+2 x255 +1 x355 -1 x155 -1 x245 -1 x364 = 0 ;
+2 x246 +1 x346 -1 x146 -1 x236 -1 x355 = 0 ;
+2 x237 +1 x337 -1 x137 -1 x227 -1 x346 = 0 ;
+2 x228 +1 x328 -1 x128 -1 x218 -1 x337 = 0 ;
+2 x219 +1 x319 -1 x119 -1 x209 -1 x328 = 0 ;
+2 x210 +1 x310 -1 x110 -1 x200 -1 x319 = 0 ;
+2 x201 +1 x301 -1 x101 -1 x310 = 0 ;
+1 x301 -1 x401 = 0 ;
-1 x485 +1 x27 >= 0 ;
-1 x485 +1 x38 >= 0 ;
+1 x485 -1 x27 -1 x38 >= -1 ;
-1 x477 +1 x26 >= 0 ;
-1 x477 +1 x39 >= 0 ;
+1 x477 -1 x26 -1 x39 >= -1 ;
-1 x469 +1 x25 >= 0 ;
-1 x469 +1 x40 >= 0 ;
+1 x469 -1 x25 -1 x40 >= -1 ;
-1 x461 +1 x24 >= 0 ;
-1 x461 +1 x41 >= 0 ;
+1 x461 -1 x24 -1 x41 >= -1 ;
-1 x453 +1 x23 >= 0 ;
-1 x453 +1 x42 >= 0 ;
+1 x453 -1 x23 -1 x42 >= -1 ;
-1 x445 +1 x22 >= 0 ;
-1 x445 +1 x43 >= 0 ;
+1 x445 -1 x22 -1 x43 >= -1 ;
-1 x437 +1 x21 >= 0 ;
-1 x437 +1 x44 >= 0 ;
+1 x437 -1 x21 -1 x44 >= -1 ;
-1 x429 +1 x20 >= 0 ;
-1 x429 +1 x45 >= 0 ;
+1 x429 -1 x20 -1 x45 >= -1 ;
-1 x421 +1 x19 >= 0 ;
-1 x421 +1 x46 >= 0 ;
+1 x421 -1 x19 -1 x46 >= -1 ;
+1 x647 -1 x485 = 0 ;
+2 x558 +1 x639 -1 x477 -1 x549 -1 x647 = 0 ;
+2 x550 +1 x631 -1 x469 -1 x541 -1 x639 = 0 ;
+2 x542 +1 x623 -1 x461 -1 x533 -1 x631 = 0 ;
+2 x534 +1 x615 -1 x453 -1 x525 -1 x623 = 0 ;
+2 x526 +1 x607 -1 x445 -1 x517 -1 x615 = 0 ;
+2 x518 +1 x599 -1 x437 -1 x509 -1 x607 = 0 ;
+2 x510 +1 x591 -1 x429 -1 x501 -1 x599 = 0 ;
+2 x502 +1 x583 -1 x421 -1 x591 = 0 ;
+1 x583 -1 x664 = 0 ;
-1 x183 +1 x37 >= 0 ;
-1 x183 +1 x56 >= 0 ;
+1 x183 -1 x37 -1 x56 >= -1 ;
-1 x174 +1 x36 >= 0 ;
-1 x174 +1 x57 >= 0 ;
+1 x174 -1 x36 -1 x57 >= -1 ;
-1 x165 +1 x35 >= 0 ;
-1 x165 +1 x58 >= 0 ;
+1 x165 -1 x35 -1 x58 >= -1 ;
-1 x156 +1 x34 >= 0 ;
-1 x156 +1 x59 >= 0 ;
+1 x156 -1 x34 -1 x59 >= -1 ;
-1 x147 +1 x33 >= 0 ;
-1 x147 +1 x60 >= 0 ;
+1 x147 -1 x33 -1 x60 >= -1 ;
-1 x138 +1 x32 >= 0 ;
-1 x138 +1 x61 >= 0 ;
+1 x138 -1 x32 -1 x61 >= -1 ;
-1 x129 +1 x31 >= 0 ;
-1 x129 +1 x62 >= 0 ;
+1 x129 -1 x31 -1 x62 >= -1 ;
-1 x120 +1 x30 >= 0 ;
-1 x120 +1 x63 >= 0 ;
+1 x120 -1 x30 -1 x63 >= -1 ;
-1 x111 +1 x29 >= 0 ;
-1 x111 +1 x64 >= 0 ;
+1 x111 -1 x29 -1 x64 >= -1 ;
-1 x102 +1 x28 >= 0 ;
-1 x102 +1 x65 >= 0 ;
+1 x102 -1 x28 -1 x65 >= -1 ;
+1 x383 -1 x183 = 0 ;
+2 x274 +1 x374 -1 x174 -1 x264 -1 x383 = 0 ;
+2 x265 +1 x365 -1 x165 -1 x255 -1 x374 = 0 ;
+2 x256 +1 x356 -1 x156 -1 x246 -1 x365 = 0 ;
+2 x247 +1 x347 -1 x147 -1 x237 -1 x356 = 0 ;
+2 x238 +1 x338 -1 x138 -1 x228 -1 x347 = 0 ;
+2 x229 +1 x329 -1 x129 -1 x219 -1 x338 = 0 ;
+2 x220 +1 x320 -1 x120 -1 x210 -1 x329 = 0 ;
+2 x211 +1 x311 -1 x111 -1 x201 -1 x320 = 0 ;
+2 x202 +1 x302 -1 x102 -1 x311 = 0 ;
+1 x302 -1 x402 = 0 ;
-1 x486 +1 x27 >= 0 ;
-1 x486 +1 x39 >= 0 ;
+1 x486 -1 x27 -1 x39 >= -1 ;
-1 x478 +1 x26 >= 0 ;
-1 x478 +1 x40 >= 0 ;
+1 x478 -1 x26 -1 x40 >= -1 ;
-1 x470 +1 x25 >= 0 ;
-1 x470 +1 x41 >= 0 ;
+1 x470 -1 x25 -1 x41 >= -1 ;
-1 x462 +1 x24 >= 0 ;
-1 x462 +1 x42 >= 0 ;
+1 x462 -1 x24 -1 x42 >= -1 ;
-1 x454 +1 x23 >= 0 ;
-1 x454 +1 x43 >= 0 ;
+1 x454 -1 x23 -1 x43 >= -1 ;
-1 x446 +1 x22 >= 0 ;
-1 x446 +1 x44 >= 0 ;
+1 x446 -1 x22 -1 x44 >= -1 ;
-1 x438 +1 x21 >= 0 ;
-1 x438 +1 x45 >= 0 ;
+1 x438 -1 x21 -1 x45 >= -1 ;
-1 x430 +1 x20 >= 0 ;
-1 x430 +1 x46 >= 0 ;
+1 x430 -1 x20 -1 x46 >= -1 ;
+2 x567 +1 x648 -1 x486 -1 x558 = 0 ;
+2 x559 +1 x640 -1 x478 -1 x550 -1 x648 = 0 ;
+2 x551 +1 x632 -1 x470 -1 x542 -1 x640 = 0 ;
+2 x543 +1 x624 -1 x462 -1 x534 -1 x632 = 0 ;
+2 x535 +1 x616 -1 x454 -1 x526 -1 x624 = 0 ;
+2 x527 +1 x608 -1 x446 -1 x518 -1 x616 = 0 ;
+2 x519 +1 x600 -1 x438 -1 x510 -1 x608 = 0 ;
+2 x511 +1 x592 -1 x430 -1 x502 -1 x600 = 0 ;
+1 x592 -1 x665 = 0 ;
-1 x184 +1 x37 >= 0 ;
-1 x184 +1 x57 >= 0 ;
+1 x184 -1 x37 -1 x57 >= -1 ;
-1 x175 +1 x36 >= 0 ;
-1 x175 +1 x58 >= 0 ;
+1 x175 -1 x36 -1 x58 >= -1 ;
-1 x166 +1 x35 >= 0 ;
-1 x166 +1 x59 >= 0 ;
+1 x166 -1 x35 -1 x59 >= -1 ;
-1 x157 +1 x34 >= 0 ;
-1 x157 +1 x60 >= 0 ;
+1 x157 -1 x34 -1 x60 >= -1 ;
-1 x148 +1 x33 >= 0 ;
-1 x148 +1 x61 >= 0 ;
+1 x148 -1 x33 -1 x61 >= -1 ;
-1 x139 +1 x32 >= 0 ;
-1 x139 +1 x62 >= 0 ;
+1 x139 -1 x32 -1 x62 >= -1 ;
-1 x130 +1 x31 >= 0 ;
-1 x130 +1 x63 >= 0 ;
+1 x130 -1 x31 -1 x63 >= -1 ;
-1 x121 +1 x30 >= 0 ;
-1 x121 +1 x64 >= 0 ;
+1 x121 -1 x30 -1 x64 >= -1 ;
-1 x112 +1 x29 >= 0 ;
-1 x112 +1 x65 >= 0 ;
+1 x112 -1 x29 -1 x65 >= -1 ;
+2 x284 +1 x384 -1 x184 -1 x274 = 0 ;
+2 x275 +1 x375 -1 x175 -1 x265 -1 x384 = 0 ;
+2 x266 +1 x366 -1 x166 -1 x256 -1 x375 = 0 ;
+2 x257 +1 x357 -1 x157 -1 x247 -1 x366 = 0 ;
+2 x248 +1 x348 -1 x148 -1 x238 -1 x357 = 0 ;
+2 x239 +1 x339 -1 x139 -1 x229 -1 x348 = 0 ;
+2 x230 +1 x330 -1 x130 -1 x220 -1 x339 = 0 ;
+2 x221 +1 x321 -1 x121 -1 x211 -1 x330 = 0 ;
+2 x212 +1 x312 -1 x112 -1 x202 -1 x321 = 0 ;
+1 x312 -1 x403 = 0 ;
-1 x487 +1 x27 >= 0 ;
-1 x487 +1 x40 >= 0 ;
+1 x487 -1 x27 -1 x40 >= -1 ;
-1 x479 +1 x26 >= 0 ;
-1 x479 +1 x41 >= 0 ;
+1 x479 -1 x26 -1 x41 >= -1 ;
-1 x471 +1 x25 >= 0 ;
-1 x471 +1 x42 >= 0 ;
+1 x471 -1 x25 -1 x42 >= -1 ;
-1 x463 +1 x24 >= 0 ;
-1 x463 +1 x43 >= 0 ;
+1 x463 -1 x24 -1 x43 >= -1 ;
-1 x455 +1 x23 >= 0 ;
-1 x455 +1 x44 >= 0 ;
+1 x455 -1 x23 -1 x44 >= -1 ;
-1 x447 +1 x22 >= 0 ;
-1 x447 +1 x45 >= 0 ;
+1 x447 -1 x22 -1 x45 >= -1 ;
-1 x439 +1 x21 >= 0 ;
-1 x439 +1 x46 >= 0 ;
+1 x439 -1 x21 -1 x46 >= -1 ;
+2 x568 +1 x649 -1 x487 -1 x559 -1 x567 = 0 ;
+2 x560 +1 x641 -1 x479 -1 x551 -1 x649 = 0 ;
+2 x552 +1 x633 -1 x471 -1 x543 -1 x641 = 0 ;
+2 x544 +1 x625 -1 x463 -1 x535 -1 x633 = 0 ;
+2 x536 +1 x617 -1 x455 -1 x527 -1 x625 = 0 ;
+2 x528 +1 x609 -1 x447 -1 x519 -1 x617 = 0 ;
+2 x520 +1 x601 -1 x439 -1 x511 -1 x609 = 0 ;
+1 x601 -1 x666 = 0 ;
-1 x185 +1 x37 >= 0 ;
-1 x185 +1 x58 >= 0 ;
+1 x185 -1 x37 -1 x58 >= -1 ;
-1 x176 +1 x36 >= 0 ;
-1 x176 +1 x59 >= 0 ;
+1 x176 -1 x36 -1 x59 >= -1 ;
-1 x167 +1 x35 >= 0 ;
-1 x167 +1 x60 >= 0 ;
+1 x167 -1 x35 -1 x60 >= -1 ;
-1 x158 +1 x34 >= 0 ;
-1 x158 +1 x61 >= 0 ;
+1 x158 -1 x34 -1 x61 >= -1 ;
-1 x149 +1 x33 >= 0 ;
-1 x149 +1 x62 >= 0 ;
+1 x149 -1 x33 -1 x62 >= -1 ;
-1 x140 +1 x32 >= 0 ;
-1 x140 +1 x63 >= 0 ;
+1 x140 -1 x32 -1 x63 >= -1 ;
-1 x131 +1 x31 >= 0 ;
-1 x131 +1 x64 >= 0 ;
+1 x131 -1 x31 -1 x64 >= -1 ;
-1 x122 +1 x30 >= 0 ;
-1 x122 +1 x65 >= 0 ;
+1 x122 -1 x30 -1 x65 >= -1 ;
+2 x285 +1 x385 -1 x185 -1 x275 -1 x284 = 0 ;
+2 x276 +1 x376 -1 x176 -1 x266 -1 x385 = 0 ;
+2 x267 +1 x367 -1 x167 -1 x257 -1 x376 = 0 ;
+2 x258 +1 x358 -1 x158 -1 x248 -1 x367 = 0 ;
+2 x249 +1 x349 -1 x149 -1 x239 -1 x358 = 0 ;
+2 x240 +1 x340 -1 x140 -1 x230 -1 x349 = 0 ;
+2 x231 +1 x331 -1 x131 -1 x221 -1 x340 = 0 ;
+2 x222 +1 x322 -1 x122 -1 x212 -1 x331 = 0 ;
+1 x322 -1 x404 = 0 ;
-1 x488 +1 x27 >= 0 ;
-1 x488 +1 x41 >= 0 ;
+1 x488 -1 x27 -1 x41 >= -1 ;
-1 x480 +1 x26 >= 0 ;
-1 x480 +1 x42 >= 0 ;
+1 x480 -1 x26 -1 x42 >= -1 ;
-1 x472 +1 x25 >= 0 ;
-1 x472 +1 x43 >= 0 ;
+1 x472 -1 x25 -1 x43 >= -1 ;
-1 x464 +1 x24 >= 0 ;
-1 x464 +1 x44 >= 0 ;
+1 x464 -1 x24 -1 x44 >= -1 ;
-1 x456 +1 x23 >= 0 ;
-1 x456 +1 x45 >= 0 ;
+1 x456 -1 x23 -1 x45 >= -1 ;
-1 x448 +1 x22 >= 0 ;
-1 x448 +1 x46 >= 0 ;
+1 x448 -1 x22 -1 x46 >= -1 ;
+2 x569 +1 x650 -1 x488 -1 x560 -1 x568 = 0 ;
+2 x561 +1 x642 -1 x480 -1 x552 -1 x650 = 0 ;
+2 x553 +1 x634 -1 x472 -1 x544 -1 x642 = 0 ;
+2 x545 +1 x626 -1 x464 -1 x536 -1 x634 = 0 ;
+2 x537 +1 x618 -1 x456 -1 x528 -1 x626 = 0 ;
+2 x529 +1 x610 -1 x448 -1 x520 -1 x618 = 0 ;
+1 x610 -1 x667 = 0 ;
-1 x186 +1 x37 >= 0 ;
-1 x186 +1 x59 >= 0 ;
+1 x186 -1 x37 -1 x59 >= -1 ;
-1 x177 +1 x36 >= 0 ;
-1 x177 +1 x60 >= 0 ;
+1 x177 -1 x36 -1 x60 >= -1 ;
-1 x168 +1 x35 >= 0 ;
-1 x168 +1 x61 >= 0 ;
+1 x168 -1 x35 -1 x61 >= -1 ;
-1 x159 +1 x34 >= 0 ;
-1 x159 +1 x62 >= 0 ;
+1 x159 -1 x34 -1 x62 >= -1 ;
-1 x150 +1 x33 >= 0 ;
-1 x150 +1 x63 >= 0 ;
+1 x150 -1 x33 -1 x63 >= -1 ;
-1 x141 +1 x32 >= 0 ;
-1 x141 +1 x64 >= 0 ;
+1 x141 -1 x32 -1 x64 >= -1 ;
-1 x132 +1 x31 >= 0 ;
-1 x132 +1 x65 >= 0 ;
+1 x132 -1 x31 -1 x65 >= -1 ;
+2 x286 +1 x386 -1 x186 -1 x276 -1 x285 = 0 ;
+2 x277 +1 x377 -1 x177 -1 x267 -1 x386 = 0 ;
+2 x268 +1 x368 -1 x168 -1 x258 -1 x377 = 0 ;
+2 x259 +1 x359 -1 x159 -1 x249 -1 x368 = 0 ;
+2 x250 +1 x350 -1 x150 -1 x240 -1 x359 = 0 ;
+2 x241 +1 x341 -1 x141 -1 x231 -1 x350 = 0 ;
+2 x232 +1 x332 -1 x132 -1 x222 -1 x341 = 0 ;
+1 x332 -1 x405 = 0 ;
-1 x489 +1 x27 >= 0 ;
-1 x489 +1 x42 >= 0 ;
+1 x489 -1 x27 -1 x42 >= -1 ;
-1 x481 +1 x26 >= 0 ;
-1 x481 +1 x43 >= 0 ;
+1 x481 -1 x26 -1 x43 >= -1 ;
-1 x473 +1 x25 >= 0 ;
-1 x473 +1 x44 >= 0 ;
+1 x473 -1 x25 -1 x44 >= -1 ;
-1 x465 +1 x24 >= 0 ;
-1 x465 +1 x45 >= 0 ;
+1 x465 -1 x24 -1 x45 >= -1 ;
-1 x457 +1 x23 >= 0 ;
-1 x457 +1 x46 >= 0 ;
+1 x457 -1 x23 -1 x46 >= -1 ;
+2 x570 +1 x651 -1 x489 -1 x561 -1 x569 = 0 ;
+2 x562 +1 x643 -1 x481 -1 x553 -1 x651 = 0 ;
+2 x554 +1 x635 -1 x473 -1 x545 -1 x643 = 0 ;
+2 x546 +1 x627 -1 x465 -1 x537 -1 x635 = 0 ;
+2 x538 +1 x619 -1 x457 -1 x529 -1 x627 = 0 ;
+1 x619 -1 x668 = 0 ;
-1 x187 +1 x37 >= 0 ;
-1 x187 +1 x60 >= 0 ;
+1 x187 -1 x37 -1 x60 >= -1 ;
-1 x178 +1 x36 >= 0 ;
-1 x178 +1 x61 >= 0 ;
+1 x178 -1 x36 -1 x61 >= -1 ;
-1 x169 +1 x35 >= 0 ;
-1 x169 +1 x62 >= 0 ;
+1 x169 -1 x35 -1 x62 >= -1 ;
-1 x160 +1 x34 >= 0 ;
-1 x160 +1 x63 >= 0 ;
+1 x160 -1 x34 -1 x63 >= -1 ;
-1 x151 +1 x33 >= 0 ;
-1 x151 +1 x64 >= 0 ;
+1 x151 -1 x33 -1 x64 >= -1 ;
-1 x142 +1 x32 >= 0 ;
-1 x142 +1 x65 >= 0 ;
+1 x142 -1 x32 -1 x65 >= -1 ;
+2 x287 +1 x387 -1 x187 -1 x277 -1 x286 = 0 ;
+2 x278 +1 x378 -1 x178 -1 x268 -1 x387 = 0 ;
+2 x269 +1 x369 -1 x169 -1 x259 -1 x378 = 0 ;
+2 x260 +1 x360 -1 x160 -1 x250 -1 x369 = 0 ;
+2 x251 +1 x351 -1 x151 -1 x241 -1 x360 = 0 ;
+2 x242 +1 x342 -1 x142 -1 x232 -1 x351 = 0 ;
+1 x342 -1 x406 = 0 ;
-1 x490 +1 x27 >= 0 ;
-1 x490 +1 x43 >= 0 ;
+1 x490 -1 x27 -1 x43 >= -1 ;
-1 x482 +1 x26 >= 0 ;
-1 x482 +1 x44 >= 0 ;
+1 x482 -1 x26 -1 x44 >= -1 ;
-1 x474 +1 x25 >= 0 ;
-1 x474 +1 x45 >= 0 ;
+1 x474 -1 x25 -1 x45 >= -1 ;
-1 x466 +1 x24 >= 0 ;
-1 x466 +1 x46 >= 0 ;
+1 x466 -1 x24 -1 x46 >= -1 ;
+2 x571 +1 x652 -1 x490 -1 x562 -1 x570 = 0 ;
+2 x563 +1 x644 -1 x482 -1 x554 -1 x652 = 0 ;
+2 x555 +1 x636 -1 x474 -1 x546 -1 x644 = 0 ;
+2 x547 +1 x628 -1 x466 -1 x538 -1 x636 = 0 ;
+1 x628 -1 x669 = 0 ;
-1 x188 +1 x37 >= 0 ;
-1 x188 +1 x61 >= 0 ;
+1 x188 -1 x37 -1 x61 >= -1 ;
-1 x179 +1 x36 >= 0 ;
-1 x179 +1 x62 >= 0 ;
+1 x179 -1 x36 -1 x62 >= -1 ;
-1 x170 +1 x35 >= 0 ;
-1 x170 +1 x63 >= 0 ;
+1 x170 -1 x35 -1 x63 >= -1 ;
-1 x161 +1 x34 >= 0 ;
-1 x161 +1 x64 >= 0 ;
+1 x161 -1 x34 -1 x64 >= -1 ;
-1 x152 +1 x33 >= 0 ;
-1 x152 +1 x65 >= 0 ;
+1 x152 -1 x33 -1 x65 >= -1 ;
+2 x288 +1 x388 -1 x188 -1 x278 -1 x287 = 0 ;
+2 x279 +1 x379 -1 x179 -1 x269 -1 x388 = 0 ;
+2 x270 +1 x370 -1 x170 -1 x260 -1 x379 = 0 ;
+2 x261 +1 x361 -1 x161 -1 x251 -1 x370 = 0 ;
+2 x252 +1 x352 -1 x152 -1 x242 -1 x361 = 0 ;
+1 x352 -1 x407 = 0 ;
-1 x491 +1 x27 >= 0 ;
-1 x491 +1 x44 >= 0 ;
+1 x491 -1 x27 -1 x44 >= -1 ;
-1 x483 +1 x26 >= 0 ;
-1 x483 +1 x45 >= 0 ;
+1 x483 -1 x26 -1 x45 >= -1 ;
-1 x475 +1 x25 >= 0 ;
-1 x475 +1 x46 >= 0 ;
+1 x475 -1 x25 -1 x46 >= -1 ;
+2 x572 +1 x653 -1 x491 -1 x563 -1 x571 = 0 ;
+2 x564 +1 x645 -1 x483 -1 x555 -1 x653 = 0 ;
+2 x556 +1 x637 -1 x475 -1 x547 -1 x645 = 0 ;
+1 x637 -1 x670 = 0 ;
-1 x189 +1 x37 >= 0 ;
-1 x189 +1 x62 >= 0 ;
+1 x189 -1 x37 -1 x62 >= -1 ;
-1 x180 +1 x36 >= 0 ;
-1 x180 +1 x63 >= 0 ;
+1 x180 -1 x36 -1 x63 >= -1 ;
-1 x171 +1 x35 >= 0 ;
-1 x171 +1 x64 >= 0 ;
+1 x171 -1 x35 -1 x64 >= -1 ;
-1 x162 +1 x34 >= 0 ;
-1 x162 +1 x65 >= 0 ;
+1 x162 -1 x34 -1 x65 >= -1 ;
+2 x289 +1 x389 -1 x189 -1 x279 -1 x288 = 0 ;
+2 x280 +1 x380 -1 x180 -1 x270 -1 x389 = 0 ;
+2 x271 +1 x371 -1 x171 -1 x261 -1 x380 = 0 ;
+2 x262 +1 x362 -1 x162 -1 x252 -1 x371 = 0 ;
+1 x362 -1 x408 = 0 ;
-1 x492 +1 x27 >= 0 ;
-1 x492 +1 x45 >= 0 ;
+1 x492 -1 x27 -1 x45 >= -1 ;
-1 x484 +1 x26 >= 0 ;
-1 x484 +1 x46 >= 0 ;
+1 x484 -1 x26 -1 x46 >= -1 ;
+2 x573 +1 x654 -1 x492 -1 x564 -1 x572 = 0 ;
+2 x565 +1 x646 -1 x484 -1 x556 -1 x654 = 0 ;
+1 x646 -1 x671 = 0 ;
-1 x190 +1 x37 >= 0 ;
-1 x190 +1 x63 >= 0 ;
+1 x190 -1 x37 -1 x63 >= -1 ;
-1 x181 +1 x36 >= 0 ;
-1 x181 +1 x64 >= 0 ;
+1 x181 -1 x36 -1 x64 >= -1 ;
-1 x172 +1 x35 >= 0 ;
-1 x172 +1 x65 >= 0 ;
+1 x172 -1 x35 -1 x65 >= -1 ;
+2 x290 +1 x390 -1 x190 -1 x280 -1 x289 = 0 ;
+2 x281 +1 x381 -1 x181 -1 x271 -1 x390 = 0 ;
+2 x272 +1 x372 -1 x172 -1 x262 -1 x381 = 0 ;
+1 x372 -1 x409 = 0 ;
-1 x493 +1 x27 >= 0 ;
-1 x493 +1 x46 >= 0 ;
+1 x493 -1 x27 -1 x46 >= -1 ;
+2 x574 +1 x655 -1 x493 -1 x565 -1 x573 = 0 ;
+1 x655 -1 x672 = 0 ;
-1 x191 +1 x37 >= 0 ;
-1 x191 +1 x64 >= 0 ;
+1 x191 -1 x37 -1 x64 >= -1 ;
-1 x182 +1 x36 >= 0 ;
-1 x182 +1 x65 >= 0 ;
+1 x182 -1 x36 -1 x65 >= -1 ;
+2 x291 +1 x391 -1 x191 -1 x281 -1 x290 = 0 ;
+2 x282 +1 x382 -1 x182 -1 x272 -1 x391 = 0 ;
+1 x382 -1 x410 = 0 ;
+1 x574 -1 x673 = 0 ;
-1 x192 +1 x37 >= 0 ;
-1 x192 +1 x65 >= 0 ;
+1 x192 -1 x37 -1 x65 >= -1 ;
+2 x292 +1 x392 -1 x192 -1 x282 -1 x291 = 0 ;
+1 x392 -1 x411 = 0 ;
+1 x292 -1 x412 = 0 ;
